(set-info :smt-lib-version 2.6)
(set-logic QF_UFLRA)
(set-info :source |
MathSat group

|)
(set-info :category "random")
(set-info :status sat)
(declare-fun x0 () Real)
(declare-fun x1 () Real)
(declare-fun x2 () Real)
(declare-fun x3 () Real)
(declare-fun x4 () Real)
(declare-fun x5 () Real)
(declare-fun x6 () Real)
(declare-fun x7 () Real)
(declare-fun x8 () Real)
(declare-fun x9 () Real)
(declare-fun x10 () Real)
(declare-fun x11 () Real)
(declare-fun x12 () Real)
(declare-fun x13 () Real)
(declare-fun x14 () Real)
(declare-fun x15 () Real)
(declare-fun x16 () Real)
(declare-fun x17 () Real)
(declare-fun x18 () Real)
(declare-fun x19 () Real)
(declare-fun x20 () Real)
(declare-fun x21 () Real)
(declare-fun x22 () Real)
(declare-fun x23 () Real)
(declare-fun x24 () Real)
(declare-fun x25 () Real)
(declare-fun x26 () Real)
(declare-fun x27 () Real)
(declare-fun x28 () Real)
(declare-fun x29 () Real)
(declare-fun x30 () Real)
(declare-fun x31 () Real)
(declare-fun x32 () Real)
(declare-fun x33 () Real)
(declare-fun x34 () Real)
(declare-fun x35 () Real)
(declare-fun x36 () Real)
(declare-fun x37 () Real)
(declare-fun x38 () Real)
(declare-fun x39 () Real)
(declare-fun f0_1 (Real) Real)
(declare-fun f0_2 (Real Real) Real)
(declare-fun f0_3 (Real Real Real) Real)
(declare-fun f0_4 (Real Real Real Real) Real)
(declare-fun P0 () Bool)
(declare-fun P1 () Bool)
(declare-fun P2 () Bool)
(declare-fun P3 () Bool)
(declare-fun P4 () Bool)
(declare-fun P5 () Bool)
(declare-fun P6 () Bool)
(declare-fun P7 () Bool)
(declare-fun P8 () Bool)
(declare-fun P9 () Bool)
(declare-fun P10 () Bool)
(declare-fun P11 () Bool)
(declare-fun P12 () Bool)
(declare-fun P13 () Bool)
(declare-fun P14 () Bool)
(declare-fun P15 () Bool)
(declare-fun P16 () Bool)
(declare-fun P17 () Bool)
(declare-fun P18 () Bool)
(declare-fun P19 () Bool)
(declare-fun P20 () Bool)
(declare-fun P21 () Bool)
(declare-fun P22 () Bool)
(declare-fun P23 () Bool)
(declare-fun P24 () Bool)
(declare-fun P25 () Bool)
(declare-fun P26 () Bool)
(declare-fun P27 () Bool)
(declare-fun P28 () Bool)
(declare-fun P29 () Bool)
(declare-fun P30 () Bool)
(declare-fun P31 () Bool)
(declare-fun P32 () Bool)
(declare-fun P33 () Bool)
(declare-fun P34 () Bool)
(declare-fun P35 () Bool)
(declare-fun P36 () Bool)
(declare-fun P37 () Bool)
(declare-fun P38 () Bool)
(declare-fun P39 () Bool)
(assert (let ((?v_8 (< (- (+ (* 39 x33) (* 21 x30)) (* 18 x3)) 9)) (?v_143 (< (+ (- (* 48 x12) (* 31 x32)) (* 29 x35)) 15)) (?v_94 (<= (- (+ (* 10 x0) (* 51 x9)) (* 20 x10)) 38)) (?v_33 (< (- (- (* 55 x25) (* 43 x13)) (* 28 x16)) 35)) (?v_124 (< (+ (- (* 17 x12) (* 7 x32)) (* 5 x8)) 53)) (?v_4 (f0_1 x38))) (let ((?v_24 (= (f0_2 x10 x22) ?v_4)) (?v_6 (f0_1 x11))) (let ((?v_62 (distinct ?v_6 x28)) (?v_159 (= (f0_1 x37) (f0_2 x26 x25))) (?v_116 (= (f0_1 x21) x15)) (?v_140 (= x35 (f0_2 x35 x0))) (?v_1 (f0_1 x34))) (let ((?v_163 (distinct x3 ?v_1)) (?v_45 (distinct (f0_2 x26 x32) (f0_2 x18 x37))) (?v_41 (distinct x28 ?v_4)) (?v_2 (distinct x15 x16)) (?v_85 (= x10 (f0_2 x30 x27))) (?v_81 (= x33 x35)) (?v_87 (= (f0_2 x13 x26) x24)) (?v_64 (= (f0_1 x31) (f0_1 x7))) (?v_22 (= (f0_2 x10 x21) (f0_1 x20))) (?v_25 (distinct (f0_2 x33 x37) x19)) (?v_158 (= x17 (f0_1 x2))) (?v_28 (f0_1 x10))) (let ((?v_35 (= ?v_28 (f0_1 x9))) (?v_119 (distinct (f0_2 x28 x18) (f0_1 x17))) (?v_144 (distinct x38 x13)) (?v_16 (= x16 (f0_2 x23 x23))) (?v_32 (= x39 (f0_2 x12 x33))) (?v_49 (= (f0_2 x11 x37) ?v_6)) (?v_183 (distinct (f0_2 x16 x3) (f0_2 x12 x19))) (?v_11 (distinct (f0_2 x24 x13) (f0_1 x16))) (?v_68 (distinct (f0_1 x12) x18)) (?v_76 (= x31 (f0_2 x5 x16))) (?v_99 (distinct x37 x5)) (?v_100 (= (f0_2 x38 x23) x37)) (?v_63 (f0_1 x0))) (let ((?v_108 (distinct (f0_2 x11 x14) ?v_63)) (?v_77 (= (f0_1 x25) (f0_2 x2 x35))) (?v_71 (distinct x24 x12)) (?v_79 (= (f0_2 x19 x32) x36)) (?v_47 (distinct (f0_1 x13) (f0_1 x28))) (?v_59 (distinct ?v_63 x4)) (?v_122 (= ?v_1 (f0_1 x36))) (?v_51 (distinct x39 x16)) (?v_170 (distinct (f0_2 x30 x8) x26)) (?v_30 (distinct x29 ?v_28)) (?v_129 (distinct (f0_2 x4 x30) x37)) (?v_101 (= x38 x30))) (let ((?v_38 (not ?v_30)) (?v_105 (not ?v_116)) (?v_10 (not ?v_122)) (?v_61 (not ?v_62)) (?v_82 (not ?v_163)) (?v_174 (not ?v_68)) (?v_146 (not ?v_119)) (?v_107 (not P34)) (?v_7 (not ?v_101)) (?v_29 (not P21)) (?v_20 (not ?v_41)) (?v_168 (not P19)) (?v_142 (not P35)) (?v_13 (not ?v_170)) (?v_44 (not P36)) (?v_141 (not ?v_8)) (?v_12 (not ?v_11)) (?v_106 (not ?v_87)) (?v_66 (not P26)) (?v_65 (not P9)) (?v_31 (not P18)) (?v_21 (not P22)) (?v_37 (not P1)) (?v_43 (not ?v_159)) (?v_192 (not P31)) (?v_102 (not ?v_79)) (?v_26 (not P23)) (?v_70 (not ?v_22)) (?v_98 (not ?v_25)) (?v_53 (not P25)) (?v_139 (not ?v_33)) (?v_155 (not P27)) (?v_131 (not P3)) (?v_52 (not ?v_100)) (?v_128 (not ?v_183)) (?v_166 (not ?v_64)) (?v_90 (not P15)) (?v_161 (not ?v_59)) (?v_54 (not ?v_45)) (?v_56 (not P16)) (?v_73 (not ?v_51)) (?v_86 (not P0)) (?v_179 (not P10)) (?v_127 (not ?v_49)) (?v_182 (not P32)) (?v_153 (not P11)) (?v_89 (not ?v_108)) (?v_80 (not ?v_2)) (?v_120 (not P14)) (?v_125 (not P29)) (?v_95 (not ?v_76)) (?v_97 (not ?v_81)) (?v_157 (not P20)) (?v_132 (not ?v_94)) (?v_111 (not P24)) (?v_110 (not P2)) (?v_177 (not P4)) (?v_167 (not P6)) (?v_156 (not ?v_77)) (?v_202 (not ?v_16)) (?v_186 (not P7)) (?v_134 (not P12)) (?v_145 (not P30)) (?v_147 (not ?v_124)) (?v_189 (not ?v_144)) (?v_136 (not P39)) (?v_191 (not ?v_129)) (?v_199 (not P33)) (?v_169 (not P5)) (?v_195 (not P17)) (?v_154 (not P37)) (?v_165 (not ?v_143)) (?v_197 (not ?v_32)) (?v_201 (not P38)) (?v_188 (not ?v_71)) (?v_181 (not P13)) (?v_173 (not ?v_140)) (?v_178 (not P8)) (?v_172 (not ?v_24)) (?v_180 (not ?v_158)) (?v_198 (not ?v_35)) (?v_200 (not ?v_85)) (?v_193 (not ?v_47)) (?v_9 (<= (+ (- 0 (* 21 x12)) (* 17 x24)) 55))) (let ((?v_109 (not ?v_9)) (?v_17 (< (+ (* 55 x1) (* 34 x2) (* 44 x16)) 18)) (?v_27 (= (- (- 0 (* 30 x35)) (* 47 x9)) 34)) (?v_148 (< (- (- (* 23 x33) 0) (* 43 x9)) 8))) (let ((?v_69 (not ?v_148)) (?v_115 (not ?v_17)) (?v_42 (not ?v_27)) (?v_3 (< (+ (* (- 45) x4) (* 45 x34) (* 4 x11)) (- 36))) (?v_36 (<= (+ (* (- 50) x27) (* 4 x29) (* 57 x25)) 11)) (?v_0 (< (+ (* 10 x17) (* 27 x30) (* 45 x14)) (- 35))) (?v_18 (< (- (+ (* (- 49) x24) (* 50 x30)) (* 28 x7)) 21)) (?v_67 (<= (- (- (* (- 46) x28) x10) (* 56 x4)) (- 51)))) (let ((?v_74 (not ?v_67)) (?v_75 (< (+ (- (* (- 27) x15) (* 24 x26)) (* 31 x23)) (- 1)))) (let ((?v_34 (not ?v_75)) (?v_123 (not ?v_3)) (?v_190 (< (+ (- (* (- 46) x32) (* 22 x30)) (* 38 x35)) (- 42)))) (let ((?v_5 (not ?v_190)) (?v_151 (not ?v_0)) (?v_112 (= (+ (- (* (- 2) x38) (* 45 x38)) (* 4 x5)) 16))) (let ((?v_72 (not ?v_112)) (?v_84 (= (+ (* (- 27) x25) (* 37 x13) (* 32 x33)) 26))) (let ((?v_39 (not ?v_84)) (?v_15 (<= (- (- 0 (* 42 x3)) (* 15 x35)) (- 51)))) (let ((?v_23 (not ?v_15)) (?v_48 (< (+ (- (* (- 53) x6) (* 47 x29)) (* 16 x17)) (- 50))) (?v_14 (<= (- (+ (* (- 6) x5) (* 39 x32)) 0) (- 55)))) (let ((?v_83 (not ?v_14)) (?v_149 (< (+ (- (* (- 2) x15) (* 8 x2)) (* 6 x10)) (- 32)))) (let ((?v_137 (not ?v_149)) (?v_19 (<= (+ (* (- 40) x19) (* 51 x1)) (- 47))) (?v_40 (not ?v_18)) (?v_88 (< (- (- (* (- 24) x21) (* 15 x9)) (* 41 x20)) 22))) (let ((?v_50 (not ?v_88)) (?v_162 (not ?v_36)) (?v_55 (<= (+ (- (* 2 x16) (* 36 x36)) (* 22 x32)) (- 3))) (?v_91 (< (+ (* (- 22) x33) (* 43 x12) (* 11 x16)) 39)) (?v_58 (< (+ (* 55 x31) (* 40 x15) (* 57 x36)) (- 41)))) (let ((?v_103 (not ?v_58)) (?v_46 (<= (+ (* 18 x0) (* 14 x33) (* 47 x28)) (- 40))) (?v_60 (< (+ (* (- 42) x18) (* 53 x35) (* 42 x13)) 19))) (let ((?v_57 (not ?v_46)) (?v_126 (not ?v_48)) (?v_133 (not ?v_55)) (?v_78 (< (+ (* 26 x29) (* 33 x24) (* 16 x33)) (- 40)))) (let ((?v_138 (not ?v_78)) (?v_92 (< (- (- (* (- 35) x3) (* 24 x5)) (* 47 x31)) 24)) (?v_113 (not ?v_60)) (?v_187 (<= (- (+ (* (- 50) x21) (* 7 x27)) (* 14 x18)) 41))) (let ((?v_118 (not ?v_187)) (?v_93 (= (- (- (* (- 8) x12) (* 22 x15)) (* 26 x26)) 56)) (?v_114 (< (- (+ (* (- 42) x37) (* 32 x6)) (* 25 x19)) 38))) (let ((?v_196 (not ?v_114)) (?v_104 (not ?v_19)) (?v_135 (= (+ (* 3 x9) (* 36 x12) (* 7 x30)) (- 35)))) (let ((?v_121 (not ?v_135)) (?v_130 (not ?v_92)) (?v_96 (< (- (- (* (- 3) x36) (* 34 x37)) (* 25 x14)) (- 55)))) (let ((?v_160 (not ?v_96)) (?v_150 (<= (+ (- (* (- 27) x33) (* 18 x22)) (* 9 x6)) 37))) (let ((?v_152 (not ?v_150)) (?v_117 (= (+ (- (* 33 x38) (* 48 x8)) (* 18 x27)) (- 26)))) (let ((?v_164 (not ?v_117)) (?v_185 (< (+ (* (- 8) x4) (* 55 x23) (* 8 x30)) 16))) (let ((?v_171 (not ?v_185)) (?v_175 (= (- (+ (* (- 57) x26) (* 16 x8)) (* 52 x37)) 36)) (?v_194 (not ?v_93)) (?v_176 (not ?v_91))) (let ((?v_184 (not ?v_175))) (and (and (and (and (and (and (and (and (and (and (and (and (and (and (and (and (and (and (and (and (and (and (and (and (and (and (and (and (and (and (and (and (and (and (and (and (and (and (and (and (and (and (and (and (and (and (and (and (and (and (and (and (and (and (and (and (and (and (and (and (and (and (and (and (and (and (and (and (and (and (and (and (and (and (and (and (and (and (and (and (and (and (and (and (and (and (and (and (and (and (and (and (and (and (and (and (and (and (and (and (and (and (and (and (and (and (and (and (and (and (and (and (and (and (and (and (and (and (and (and (and (and (and (and (and (and (and (and (and (and (and (and (and (and (and (and (and (and (and (and (and (and (and (and (and (and (and (and (and (and (and (and (and (and (and (and (and (and (and (and (and (and (and (and (and (and (and (and (and (and (and (and (and (and (and (and (and (and (and (and (and (and (and (and (and (and (and (and (and (and (and (and (and (and (and (and (and (and (and (and (and (and (and (and (and (and (and (and (and (and (and (and (and (and (and (and (and (and (and (and (and (and (and (and (and (and (and (and (and (and (and (and (and (and (and (and (and (and (and (and (and (and (and (and (and (and (and (and (and (and (and (and (and (and (and (and (and (and (and (and (and (and (and (and (and (and (and (and (and (and (and (and (and (and (and (and (and (and (and (and (and (and (and (and (and (and (and (and (and (and (and (and (and (and (and (and (and (and (and (and (and (and (and (and (and (and (and (and (and (and (and (and (and (and (and (and (and (and (and (and (and (and (and (and (and (and (and (and (and (and (and (and (and (and (and (and (and (and (and (and (and (and (and (and (and (and (and (and (and (and (and (and (and (and (and (and (and (and (and (and (and (and (and (and (and (and (and (and (and (and (and (and (and (and (and (and (and (and (and (and (and (and (and (and (and (and (and (and (and (and (and (and (and (and (and (and (and (and (and (and (and (and (and (and (and (and (and (and (and (and (and (and (and (and (and (and (and (and (and (and (and (and (and (and (and (and (and (and (and (and (and (and (and (and (and (and (and (and (and (and (and (and (and (and (and (and (and (and (and (and (and (and (and (and (and (and (and (and (and (and (and (and (and (and (and (and (and (and (and (and (and (and (and (and (and (and (and (and (and (or (or ?v_2 ?v_38) ?v_105) (or (or ?v_3 ?v_36) ?v_10)) (or (or ?v_0 P37) ?v_18)) (or (or ?v_74 ?v_34) ?v_109)) (or (or ?v_8 ?v_45) ?v_0)) (or (or P21 ?v_61) ?v_82)) (or (or ?v_174 ?v_2) P36)) (or (or P7 ?v_123) ?v_146)) (or (or ?v_24 ?v_5) ?v_107)) (or (or ?v_7 ?v_29) ?v_20)) (or (or ?v_5 P11) ?v_49)) (or (or P3 P3) ?v_168)) (or (or P7 ?v_151) ?v_72)) (or (or P26 ?v_99) ?v_39)) (or (or ?v_22 ?v_7) ?v_17)) (or (or ?v_8 ?v_76) ?v_9)) (or (or ?v_142 ?v_5) ?v_10)) (or (or ?v_23 ?v_13) ?v_16)) (or (or P6 P4) P11)) (or (or ?v_44 ?v_11) P27)) (or (or ?v_141 P20) ?v_12)) (or (or P15 ?v_106) P16)) (or (or ?v_66 ?v_27) ?v_12)) (or (or P5 ?v_13) P31)) (or (or ?v_48 ?v_65) P28)) (or (or ?v_25 ?v_81) P23)) (or (or ?v_31 ?v_21) ?v_14)) (or (or ?v_37 P1) ?v_83)) (or (or ?v_137 ?v_69) ?v_15)) (or (or ?v_51 ?v_19) ?v_16)) (or (or ?v_17 ?v_43) ?v_40)) (or (or ?v_192 ?v_19) ?v_102)) (or (or ?v_115 ?v_33) P32)) (or (or ?v_20 ?v_21) ?v_26)) (or (or ?v_140 ?v_70) ?v_23)) (or (or ?v_24 ?v_50) ?v_98)) (or (or ?v_26 P3) P4)) (or (or P1 P33) ?v_53)) (or (or P30 ?v_47) ?v_32)) (or (or ?v_42 ?v_35) P11)) (or (or ?v_29 P12) ?v_30)) (or (or ?v_31 ?v_32) ?v_21)) (or (or ?v_139 ?v_34) ?v_35)) (or (or ?v_162 ?v_55) ?v_155)) (or (or ?v_131 P19) ?v_143)) (or (or ?v_0 ?v_37) P8)) (or (or ?v_52 ?v_38) ?v_12)) (or (or ?v_39 ?v_91) ?v_40)) (or (or ?v_103 ?v_7) P28)) (or (or ?v_128 P17) ?v_166)) (or (or ?v_46 ?v_35) ?v_41)) (or (or ?v_14 ?v_60) ?v_42)) (or (or ?v_43 ?v_24) ?v_44)) (or (or ?v_90 ?v_161) P24)) (or (or ?v_54 ?v_3) ?v_57)) (or (or ?v_56 ?v_47) ?v_36)) (or (or ?v_126 ?v_49) P15)) (or (or ?v_50 ?v_73) ?v_52)) (or (or ?v_14 ?v_37) ?v_71)) (or (or P9 P4) ?v_53)) (or (or ?v_54 P30) ?v_86)) (or (or ?v_34 ?v_179) ?v_10)) (or (or ?v_43 ?v_133) ?v_56)) (or (or ?v_138 ?v_8) ?v_21)) (or (or ?v_57 ?v_58) ?v_59)) (or (or ?v_85 P4) ?v_92)) (or (or ?v_113 ?v_61) ?v_127)) (or (or ?v_62 ?v_53) ?v_124)) (or (or ?v_182 ?v_153) P37)) (or (or ?v_39 ?v_89) ?v_64)) (or (or ?v_80 ?v_120) ?v_65)) (or (or ?v_66 P16) ?v_36)) (or (or ?v_67 P22) ?v_42)) (or (or ?v_125 ?v_77) ?v_68)) (or (or P19 ?v_14) P1)) (or (or ?v_69 P28) ?v_19)) (or (or ?v_70 P38) ?v_42)) (or (or P15 ?v_71) ?v_72)) (or (or ?v_14 ?v_59) ?v_73)) (or (or P7 ?v_74) ?v_75)) (or (or ?v_95 P39) P16)) (or (or P7 ?v_60) ?v_77)) (or (or ?v_94 ?v_118) P10)) (or (or ?v_78 ?v_79) ?v_18)) (or (or ?v_53 P12) ?v_80)) (or (or ?v_78 ?v_9) ?v_40)) (or (or ?v_93 ?v_13) ?v_97)) (or (or ?v_43 ?v_82) ?v_157)) (or (or P2 ?v_83) ?v_67)) (or (or P16 ?v_23) P9)) (or (or ?v_57 ?v_62) ?v_84)) (or (or ?v_10 ?v_85) ?v_86)) (or (or P4 ?v_56) ?v_87)) (or (or ?v_196 P23) ?v_88)) (or (or P15 ?v_89) P18)) (or (or ?v_90 ?v_90) ?v_104)) (or (or ?v_121 P34) ?v_64)) (or (or ?v_81 ?v_91) ?v_130)) (or (or ?v_93 ?v_47) ?v_160)) (or (or ?v_32 ?v_132) ?v_95)) (or (or ?v_49 ?v_87) ?v_152)) (or (or P6 ?v_96) ?v_97)) (or (or ?v_98 ?v_16) ?v_69)) (or (or ?v_164 ?v_72) ?v_83)) (or (or ?v_55 ?v_25) P2)) (or (or ?v_111 P39) ?v_46)) (or (or ?v_110 ?v_19) ?v_99)) (or (or P34 ?v_43) ?v_177)) (or (or ?v_34 ?v_65) ?v_100)) (or (or ?v_47 ?v_61) ?v_78)) (or (or P18 ?v_167) ?v_29)) (or (or ?v_41 P19) ?v_101)) (or (or ?v_84 ?v_102) ?v_73)) (or (or ?v_156 ?v_103) ?v_202)) (or (or ?v_186 ?v_43) ?v_104)) (or (or ?v_105 ?v_70) ?v_92)) (or (or ?v_106 P17) P3)) (or (or ?v_107 ?v_62) ?v_108)) (or (or ?v_20 ?v_54) P21)) (or (or ?v_54 ?v_109) ?v_110)) (or (or ?v_171 ?v_85) ?v_101)) (or (or ?v_24 ?v_96) ?v_55)) (or (or ?v_78 ?v_44) P3)) (or (or ?v_111 ?v_112) ?v_70)) (or (or ?v_29 ?v_25) ?v_113)) (or (or ?v_113 P24) ?v_85)) (or (or ?v_20 ?v_112) P36)) (or (or ?v_114 ?v_115) ?v_116)) (or (or ?v_117 ?v_117) ?v_118)) (or (or ?v_119 ?v_134) ?v_120)) (or (or ?v_90 ?v_85) ?v_121)) (or (or ?v_122 ?v_123) ?v_145)) (or (or ?v_78 P17) ?v_147)) (or (or ?v_125 ?v_126) ?v_61)) (or (or ?v_49 ?v_127) ?v_89)) (or (or P24 ?v_189) ?v_128)) (or (or ?v_54 P14) ?v_80)) (or (or ?v_30 ?v_101) ?v_61)) (or (or ?v_48 ?v_107) ?v_129)) (or (or ?v_38 ?v_136) ?v_66)) (or (or ?v_191 ?v_67) ?v_125)) (or (or ?v_107 ?v_70) P22)) (or (or ?v_69 ?v_68) ?v_8)) (or (or P14 P5) P12)) (or (or ?v_130 P5) ?v_20)) (or (or ?v_131 P1) ?v_3)) (or (or ?v_132 ?v_13) ?v_133)) (or (or P7 ?v_158) ?v_41)) (or (or ?v_7 ?v_2) P31)) (or (or P28 P30) P10)) (or (or ?v_124 ?v_93) ?v_199)) (or (or ?v_14 ?v_134) P7)) (or (or ?v_47 ?v_97) ?v_112)) (or (or P24 ?v_135) ?v_136)) (or (or ?v_68 ?v_114) ?v_137)) (or (or ?v_10 ?v_17) ?v_138)) (or (or ?v_37 ?v_169) ?v_122)) (or (or P6 ?v_139) ?v_90)) (or (or ?v_195 ?v_139) ?v_12)) (or (or ?v_53 ?v_90) ?v_175)) (or (or ?v_112 ?v_140) P31)) (or (or ?v_19 ?v_29) ?v_33)) (or (or ?v_57 ?v_110) ?v_35)) (or (or P7 ?v_105) ?v_52)) (or (or ?v_18 ?v_154) ?v_141)) (or (or ?v_121 ?v_17) P9)) (or (or ?v_14 ?v_142) ?v_99)) (or (or ?v_53 ?v_124) P7)) (or (or ?v_194 ?v_80) ?v_54)) (or (or ?v_64 ?v_165) ?v_8)) (or (or ?v_84 ?v_29) ?v_72)) (or (or ?v_144 ?v_126) P32)) (or (or ?v_197 ?v_127) ?v_144)) (or (or ?v_145 ?v_16) ?v_102)) (or (or ?v_43 ?v_146) P7)) (or (or ?v_29 ?v_128) P2)) (or (or ?v_84 ?v_33) P8)) (or (or ?v_111 ?v_123) P14)) (or (or ?v_90 ?v_106) ?v_147)) (or (or ?v_148 ?v_61) ?v_149)) (or (or ?v_148 ?v_27) ?v_150)) (or (or ?v_81 ?v_143) ?v_39)) (or (or P27 ?v_131) ?v_107)) (or (or ?v_128 ?v_37) P20)) (or (or P21 ?v_151) ?v_96)) (or (or ?v_152 ?v_153) P18)) (or (or ?v_77 ?v_44) ?v_21)) (or (or ?v_68 ?v_31) ?v_61)) (or (or ?v_154 P24) ?v_138)) (or (or ?v_58 ?v_5) ?v_120)) (or (or ?v_176 ?v_115) ?v_7)) (or (or P3 ?v_85) ?v_117)) (or (or ?v_128 ?v_155) ?v_97)) (or (or ?v_97 ?v_156) ?v_75)) (or (or ?v_130 ?v_149) ?v_66)) (or (or ?v_84 ?v_116) ?v_12)) (or (or P32 P25) ?v_70)) (or (or ?v_112 ?v_157) ?v_93)) (or (or ?v_201 ?v_94) ?v_59)) (or (or ?v_158 ?v_33) ?v_68)) (or (or ?v_67 ?v_151) ?v_146)) (or (or ?v_46 ?v_109) ?v_134)) (or (or ?v_17 P10) ?v_159)) (or (or ?v_154 ?v_146) P7)) (or (or ?v_147 ?v_21) ?v_86)) (or (or ?v_160 P26) ?v_159)) (or (or ?v_10 P16) P2)) (or (or ?v_118 ?v_46) ?v_31)) (or (or P20 ?v_161) ?v_135)) (or (or ?v_9 ?v_103) ?v_188)) (or (or ?v_39 ?v_62) ?v_38)) (or (or ?v_65 P8) ?v_44)) (or (or ?v_162 ?v_70) ?v_53)) (or (or P2 ?v_54) P14)) (or (or ?v_181 ?v_75) ?v_62)) (or (or ?v_70 P19) ?v_125)) (or (or ?v_83 P23) ?v_69)) (or (or P9 ?v_46) ?v_137)) (or (or P6 ?v_135) ?v_66)) (or (or ?v_17 ?v_105) P2)) (or (or P19 P12) P13)) (or (or ?v_17 ?v_48) ?v_163)) (or (or ?v_59 ?v_164) ?v_97)) (or (or ?v_165 ?v_27) ?v_148)) (or (or ?v_139 P34) ?v_45)) (or (or ?v_122 ?v_50) ?v_79)) (or (or ?v_156 ?v_130) P13)) (or (or ?v_156 ?v_105) ?v_117)) (or (or ?v_166 ?v_2) ?v_40)) (or (or ?v_167 ?v_70) ?v_69)) (or (or ?v_80 ?v_148) ?v_42)) (or (or ?v_131 ?v_39) P36)) (or (or ?v_168 ?v_94) ?v_153)) (or (or ?v_69 ?v_114) ?v_35)) (or (or ?v_65 ?v_169) P38)) (or (or ?v_26 P26) P18)) (or (or ?v_165 ?v_20) ?v_105)) (or (or ?v_136 ?v_160) ?v_108)) (or (or ?v_91 ?v_148) ?v_173)) (or (or ?v_105 ?v_167) ?v_38)) (or (or P27 P6) ?v_78)) (or (or ?v_128 ?v_69) ?v_178)) (or (or ?v_27 ?v_170) ?v_171)) (or (or ?v_84 P6) ?v_7)) (or (or ?v_172 ?v_14) ?v_64)) (or (or P12 ?v_0) ?v_62)) (or (or ?v_159 ?v_33) ?v_85)) (or (or ?v_69 ?v_172) ?v_110)) (or (or P10 ?v_34) ?v_170)) (or (or P10 ?v_173) ?v_26)) (or (or P3 ?v_113) ?v_130)) (or (or ?v_51 ?v_174) ?v_82)) (or (or P2 ?v_137) ?v_153)) (or (or ?v_108 ?v_98) ?v_184)) (or (or ?v_84 ?v_112) ?v_134)) (or (or ?v_51 ?v_38) ?v_167)) (or (or P33 ?v_56) ?v_23)) (or (or ?v_102 P31) ?v_35)) (or (or ?v_168 ?v_54) ?v_75)) (or (or P31 ?v_89) ?v_137)) (or (or ?v_176 ?v_34) ?v_146)) (or (or ?v_120 ?v_154) ?v_113)) (or (or ?v_117 ?v_159) P6)) (or (or P18 ?v_177) ?v_178)) (or (or ?v_129 ?v_78) ?v_112)) (or (or ?v_180 ?v_119) ?v_179)) (or (or ?v_24 ?v_29) P5)) (or (or ?v_106 ?v_101) ?v_130)) (or (or ?v_92 ?v_131) ?v_176)) (or (or ?v_44 ?v_46) ?v_107)) (or (or ?v_71 ?v_161) ?v_135)) (or (or P19 P21) ?v_162)) (or (or ?v_33 ?v_122) ?v_9)) (or (or P36 ?v_46) ?v_159)) (or (or ?v_133 P11) ?v_167)) (or (or ?v_61 ?v_56) ?v_148)) (or (or ?v_138 ?v_7) ?v_30)) (or (or ?v_139 ?v_177) ?v_170)) (or (or ?v_81 ?v_180) ?v_117)) (or (or P39 ?v_80) ?v_44)) (or (or ?v_42 ?v_181) ?v_83)) (or (or ?v_123 ?v_182) ?v_156)) (or (or P1 ?v_161) ?v_22)) (or (or ?v_9 P14) ?v_163)) (or (or ?v_47 ?v_141) ?v_5)) (or (or ?v_198 P6) ?v_30)) (or (or ?v_78 ?v_177) ?v_143)) (or (or ?v_71 P16) ?v_142)) (or (or ?v_72 ?v_130) ?v_71)) (or (or ?v_132 ?v_156) ?v_11)) (or (or ?v_160 ?v_183) ?v_47)) (or (or ?v_64 ?v_182) ?v_151)) (or (or P21 ?v_26) ?v_184)) (or (or ?v_185 P27) ?v_96)) (or (or ?v_35 ?v_171) ?v_158)) (or (or ?v_116 ?v_92) ?v_186)) (or (or ?v_105 ?v_131) ?v_23)) (or (or ?v_37 ?v_112) P21)) (or (or P26 ?v_67) ?v_181)) (or (or ?v_147 ?v_87) P18)) (or (or ?v_126 ?v_155) ?v_176)) (or (or ?v_76 ?v_87) P5)) (or (or ?v_26 ?v_163) ?v_155)) (or (or ?v_92 ?v_107) P4)) (or (or ?v_3 ?v_50) ?v_12)) (or (or ?v_157 ?v_75) ?v_92)) (or (or P20 ?v_36) ?v_57)) (or (or ?v_187 ?v_53) ?v_106)) (or (or P37 ?v_71) ?v_162)) (or (or ?v_126 ?v_45) P17)) (or (or ?v_89 ?v_135) ?v_87)) (or (or ?v_14 ?v_18) ?v_12)) (or (or P30 ?v_164) ?v_3)) (or (or ?v_157 ?v_88) ?v_133)) (or (or ?v_94 ?v_136) ?v_158)) (or (or ?v_131 ?v_157) ?v_40)) (or (or P9 ?v_188) ?v_57)) (or (or ?v_178 ?v_139) ?v_21)) (or (or ?v_89 ?v_82) ?v_131)) (or (or ?v_70 P21) ?v_108)) (or (or ?v_41 ?v_98) P34)) (or (or ?v_179 ?v_54) ?v_67)) (or (or ?v_80 ?v_141) ?v_112)) (or (or ?v_136 ?v_3) P30)) (or (or ?v_143 ?v_105) ?v_189)) (or (or ?v_190 P34) ?v_20)) (or (or ?v_167 P4) ?v_106)) (or (or ?v_164 ?v_161) ?v_13)) (or (or ?v_95 ?v_104) P36)) (or (or ?v_33 P9) ?v_10)) (or (or ?v_18 ?v_185) P21)) (or (or P9 ?v_119) ?v_95)) (or (or ?v_23 ?v_20) ?v_142)) (or (or ?v_175 ?v_170) ?v_168)) (or (or ?v_58 ?v_127) P19)) (or (or ?v_7 ?v_150) ?v_19)) (or (or ?v_141 ?v_191) ?v_155)) (or (or ?v_130 ?v_144) ?v_128)) (or (or ?v_35 ?v_36) (not ?v_99))) (or (or ?v_200 P25) ?v_173)) (or (or ?v_159 ?v_14) ?v_76)) (or (or ?v_11 P19) ?v_138)) (or (or ?v_54 ?v_75) ?v_11)) (or (or ?v_12 ?v_169) ?v_192)) (or (or ?v_62 ?v_7) ?v_81)) (or (or ?v_48 ?v_36) ?v_140)) (or (or ?v_64 ?v_143) P5)) (or (or ?v_179 ?v_133) ?v_78)) (or (or ?v_10 ?v_193) ?v_33)) (or (or ?v_176 ?v_146) ?v_5)) (or (or ?v_81 ?v_0) P11)) (or (or ?v_12 ?v_40) P16)) (or (or ?v_103 ?v_147) P4)) (or (or ?v_106 ?v_154) ?v_193)) (or (or P8 ?v_111) ?v_29)) (or (or P31 ?v_77) ?v_168)) (or (or ?v_97 ?v_24) P35)) (or (or ?v_115 ?v_72) P35)) (or (or ?v_34 ?v_24) P27)) (or (or ?v_130 ?v_85) ?v_100)) (or (or ?v_48 ?v_194) ?v_23)) (or (or P9 ?v_169) ?v_195)) (or (or ?v_48 ?v_73) ?v_147)) (or (or ?v_128 ?v_119) ?v_86)) (or (or ?v_96 ?v_98) ?v_33)) (or (or ?v_44 ?v_117) ?v_166)) (or (or ?v_7 ?v_20) ?v_163)) (or (or ?v_65 ?v_160) P5)) (or (or ?v_91 ?v_120) ?v_175)) (or (or ?v_181 P12) ?v_196)) (or (or ?v_67 ?v_132) ?v_48)) (or (or ?v_121 ?v_162) ?v_190)) (or (or ?v_145 ?v_113) ?v_148)) (or (or P32 ?v_148) ?v_18)) (or (or P19 ?v_101) ?v_137)) (or (or ?v_62 ?v_173) ?v_5)) (or (or ?v_84 ?v_197) ?v_92)) (or (or ?v_17 ?v_197) ?v_171)) (or (or ?v_14 ?v_178) ?v_90)) (or (or ?v_197 ?v_116) ?v_67)) (or (or ?v_124 ?v_12) ?v_198)) (or (or P15 ?v_149) ?v_105)) (or (or ?v_165 ?v_106) P13)) (or (or ?v_128 ?v_16) P25)) (or (or ?v_90 P39) ?v_100)) (or (or ?v_32 ?v_3) ?v_49)) (or (or P19 ?v_150) ?v_90)) (or (or ?v_13 ?v_81) ?v_117)) (or (or ?v_196 ?v_121) ?v_59)) (or (or ?v_39 ?v_194) ?v_30)) (or (or ?v_99 ?v_171) ?v_153)) (or (or ?v_191 P10) P19)) (or (or ?v_15 ?v_180) P29)) (or (or ?v_140 P30) ?v_17)) (or (or ?v_17 P22) ?v_177)) (or (or ?v_38 ?v_135) ?v_123)) (or (or ?v_34 P29) ?v_24)) (or (or ?v_73 ?v_199) ?v_165)) (or (or P10 ?v_104) ?v_174)) (or (or P28 ?v_49) ?v_178)) (or (or ?v_51 ?v_0) ?v_195)) (or (or ?v_62 ?v_81) ?v_103)) (or (or ?v_140 ?v_54) ?v_77)) (or (or ?v_47 ?v_56) ?v_153)) (or (or ?v_45 ?v_185) ?v_141)) (or (or P11 P28) ?v_132)) (or (or ?v_33 ?v_55) ?v_126)) (or (or P28 ?v_195) ?v_100)) (or (or ?v_97 ?v_74) ?v_170)) (or (or P16 ?v_47) ?v_27)) (or (or P15 ?v_48) ?v_194)) (or (or ?v_200 ?v_115) ?v_117)) (or (or ?v_47 P18) P5)) (or (or ?v_157 ?v_70) ?v_110)) (or (or ?v_82 ?v_90) ?v_143)) (or (or ?v_97 ?v_101) ?v_5)) (or (or ?v_69 ?v_198) ?v_147)) (or (or ?v_40 ?v_150) ?v_200)) (or (or ?v_98 ?v_133) P22)) (or (or ?v_39 ?v_98) ?v_52)) (or (or ?v_124 ?v_167) ?v_84)) (or (or ?v_80 P38) ?v_32)) (or (or ?v_65 P10) ?v_16)) (or (or P9 ?v_3) ?v_201)) (or (or ?v_168 ?v_202) ?v_68)) (or (or ?v_178 P23) ?v_80)) (or (or ?v_127 ?v_106) ?v_180)) (or (or P18 ?v_90) P4)) (or (or P39 ?v_178) ?v_57)) (or (or ?v_149 ?v_102) ?v_74)) (or (or ?v_37 P34) ?v_0)) (or (or ?v_19 ?v_202) ?v_72)) (or (or ?v_30 P4) ?v_7)) (or (or ?v_104 ?v_78) ?v_150)) (or (or ?v_129 ?v_16) ?v_50)) (or (or ?v_147 ?v_179) ?v_36)) (or (or ?v_163 ?v_172) ?v_147)) (or (or ?v_127 ?v_148) ?v_22)) (or (or ?v_144 ?v_154) ?v_170)) (or (or ?v_88 ?v_27) ?v_75)) (or (or ?v_102 ?v_137) ?v_0)) (or (or ?v_164 ?v_163) ?v_138)) (or (or ?v_140 ?v_14) P29)) (or (or ?v_105 P35) ?v_104)) (or (or ?v_38 ?v_40) ?v_192)) (or (or ?v_87 ?v_168) P24)) (or (or P11 ?v_127) ?v_8)) (or (or ?v_195 ?v_108) P21)) (or (or ?v_166 ?v_13) ?v_183)) (or (or P12 ?v_179) ?v_75)) (or (or P10 ?v_159) ?v_191)) (or (or ?v_44 P15) ?v_107)) (or (or ?v_132 ?v_3) P22)) (or (or ?v_98 P39) P18)) (or (or ?v_27 ?v_185) ?v_5)) (or (or ?v_185 ?v_192) ?v_150)) (or (or P15 ?v_88) ?v_72)) (or (or ?v_51 ?v_160) ?v_29)) (or (or P21 ?v_126) ?v_25)) (or (or ?v_104 P28) ?v_162)) (or (or ?v_148 ?v_120) ?v_78)) (or (or ?v_200 ?v_60) ?v_115)) (or (or P34 ?v_115) P16)) (or (or ?v_175 ?v_48) (not P28))) (or (or ?v_24 ?v_61) ?v_25)) (or (or ?v_137 ?v_68) P35)) (or (or ?v_117 ?v_45) ?v_85)) (or (or ?v_151 ?v_98) ?v_193)) (or (or ?v_150 ?v_49) ?v_179)) (or (or P16 ?v_115) ?v_81)) (or (or ?v_176 ?v_121) ?v_93)) (or (or ?v_159 ?v_38) ?v_149)) (or (or P6 ?v_154) P0)) (or (or ?v_155 ?v_88) P3)) (or (or ?v_35 ?v_198) ?v_84)) (or (or ?v_15 ?v_9) P31)) (or (or ?v_24 P24) ?v_53)) (or (or ?v_0 ?v_177) ?v_40)) (or (or ?v_81 ?v_176) ?v_109)) (or (or P10 ?v_78) ?v_83))))))))))))))))))))))))))))))))
(check-sat)
(exit)
